nApps = 201
nRes = 9
nActs = 432
nNetworks = 6

assignmentToResources = [1,3,3,2,1,3,2,3,1,3,3,2,1,2,2,3,3,3,2,3,1,3,3,2,2,2,3,1,2,2,2,1,1,1,1,2,3,3,3,1,2,3,3,3,1,2,2,3,1,2,2,2,2,3,2,3,3,1,2,1,2,2,2,2,3,2,3,2,3,3,2,3,3,2,3,3,1,2,1,3,3,1,1,3,1,1,3,1,2,3,2,1,1,3,2,1,1,2,2,2,4,4,4,4,4,6,6,6,5,4,4,4,4,6,5,5,5,6,6,6,4,6,6,6,6,6,5,5,4,5,5,5,5,5,5,5,6,6,6,6,6,6,6,6,4,6,6,5,5,5,5,5,5,6,6,4,4,4,5,5,5,4,4,4,4,4,4,4,4,4,5,6,6,6,6,6,6,4,5,5,5,6,6,6,6,6,6,6,6,4,5,5,5,5,5,5,5,5,5,6,6,5,5,6,5,6,6,6,6,6,6,6,4,4,4,4,4,6,6,6,4,4,6,4,4,4,4,5,6,6,6,6,4,5,5,5,5,6,8,4,8,5,9,5,9,4,8,6,7,4,8,5,7,6,8,5,7,4,8,6,8,4,9,5,9,4,9,6,8,6,7,6,8,4,8,5,7,4,8,4,8,5,9,5,9,4,8,4,9,5,7,6,8,5,7,9,8,8,8,8,7,7,8,9,8,9,8,8,8,7,9,7,8,7,7,9,7,7,7,8,8,7,9,9,7,9,7,9,7,9,9,8,8,8,7,8,7,7,8,8,7,7,9,9,7,9,9,7,7,8,9,9,9,7,9,9,8,9,8,9,8,9,8,8,9,7,8,8,8,8,8,8,9,7,7,9,8,8,8,8,7,7,7,7,8,7,9,7,7,9,9,9,9,7,8,8,7,9,8,9,8,8,8,8,8,8,7,9,8,9,9,8,8,8,8,8,9,8,8,8,8,8,9,7,7,8,7,8,9,7,9,9];

processingTimes = [112,112,112,96,152,56,136,120,96,112,112,128,112,104,56,56,56,72,160,56,168,120,128,72,64,104,104,136,64,136,104,72,128,88,104,96,88,96,40,144,104,48,136,64,88,168,144,136,112,120,128,144,128,40,128,112,160,128,128,144,104,80,104,128,72,104,104,64,160,144,104,112,168,136,136,168,136,56,88,168,88,128,56,72,72,128,80,160,48,64,56,136,136,176,112,152,96,96,128,48,6,3,500,13,13,4,500,4,500,4,4,4,5,500,5,500,4,4,3,3,5,3,3,500,4,5,500,3,8,4,4,8,500,4,4,3,5,13,13,3,8,3,3,13,13,11,3,4,3,500,3,4,500,3,3,4,500,4,3,500,4,5,5,500,3,3,4,3,13,13,4,3,3,5,500,3,3,500,3,3,3,3,4,500,13,5,4,4,4,8,4,500,4,500,4,4,4,3,4,500,4,4,3,3,5,5,500,3,4,4,3,3,4,4,8,3,3,3,5,500,3,500,4,4,500,500,3,3,4,500,3,5,4,3,3,4,4,500,500,500,500,500,500,500,500,500,500,500,500,500,500,500,500,500,500,500,500,500,500,500,500,500,500,500,500,500,500,500,500,500,500,500,500,4,4,4,4,13,13,4,4,3,3,4,4,4,4,4,4,3,3,3,3,500,500,6,3,500,13,13,4,500,4,500,4,4,4,5,500,5,500,4,4,3,3,5,3,3,500,4,5,500,3,8,4,4,8,500,4,4,3,5,13,13,3,8,3,3,13,13,11,3,4,3,500,3,4,500,3,3,4,500,4,3,500,4,5,5,500,3,3,4,3,13,13,4,3,3,5,500,3,3,500,3,3,3,3,4,500,13,5,4,4,4,8,4,500,4,500,4,4,4,3,4,500,4,4,3,3,5,5,500,3,4,4,3,3,4,4,8,3,3,3,5,500,3,500,4,4,500,500,3,3,4,500,3,5,4,3,3,4,4];

periods = [10000,20000,20000,10000,100000,20000,10000,20000,10000,20000,20000,100000,10000,100000,10000,100000,100000,100000,100000,20000,100000,20000,20000,20000,20000,50000,10000,20000,20000,100000,20000,100000,100000,100000,10000,10000,100000,10000,20000,100000,20000,20000,10000,20000,20000,100000,20000,10000,1000,20000,10000,10000,10000,100000,100000,10000,20000,10000,100000,10000,50000,20000,20000,100000,20000,1000,100000,5000,10000,20000,100000,2000,20000,100000,100000,10000,100000,20000,10000,100000,10000,20000,20000,1000,5000,100000,10000,10000,50000,10000,10000,20000,20000,20000,100000,20000,20000,20000,100000,10000,10000,10000,10000,10000,10000,20000,20000,20000,10000,100000,100000,100000,100000,20000,10000,10000,10000,20000,20000,20000,10000,20000,20000,20000,20000,20000,100000,100000,10000,100000,100000,100000,100000,100000,10000,10000,100000,100000,100000,100000,100000,100000,100000,20000,100000,20000,20000,20000,20000,20000,50000,50000,50000,10000,10000,20000,20000,20000,100000,100000,20000,100000,100000,100000,100000,100000,100000,10000,10000,10000,10000,100000,100000,100000,100000,10000,10000,100000,20000,20000,20000,10000,20000,20000,20000,20000,10000,10000,10000,1000,20000,20000,20000,20000,10000,10000,100000,100000,100000,20000,20000,100000,20000,20000,1000,100000,10000,20000,2000,2000,100000,10000,10000,10000,10000,10000,10000,10000,10000,10000,20000,20000,1000,5000,100000,10000,10000,50000,10000,10000,20000,20000,20000,20000,20000,100000,100000,10000,10000,10000,10000,10000,10000,10000,10000,10000,10000,10000,10000,10000,10000,10000,10000,10000,10000,10000,10000,10000,10000,10000,10000,20000,20000,20000,20000,20000,20000,20000,20000,20000,20000,20000,20000,100000,100000,100000,100000,100000,100000,100000,100000,100000,100000,100000,100000,100000,100000,20000,20000,20000,20000,20000,20000,5000,5000,10000,10000,10000,10000,10000,20000,20000,20000,10000,100000,100000,100000,100000,20000,10000,10000,10000,20000,20000,20000,10000,20000,20000,20000,20000,20000,100000,100000,10000,100000,100000,100000,100000,100000,10000,10000,100000,100000,100000,100000,100000,100000,100000,20000,100000,20000,20000,20000,20000,20000,50000,50000,50000,10000,10000,20000,20000,20000,100000,100000,20000,100000,100000,100000,100000,100000,100000,10000,10000,10000,10000,100000,100000,100000,100000,10000,10000,100000,20000,20000,20000,10000,20000,20000,20000,20000,10000,10000,10000,1000,20000,20000,20000,20000,10000,10000,100000,100000,100000,20000,20000,100000,20000,20000,1000,100000,10000,20000,2000,2000,100000,10000,10000,10000,10000,10000,10000,10000,10000,10000,20000,20000,1000,5000,100000,10000,10000,50000,10000,10000,20000,20000,20000,20000,20000,100000,100000];

assignmentToClusters = [1,2,3,1,4,3,5,6,7,8,9,10,11,12,13,14,15,4,4,16,4,3,17,18,16,19,20,21,22,23,24,25,26,4,27,1,28,1,29,4,30,31,1,32,3,33,34,35,36,37,1,1,1,4,38,39,3,1,40,1,41,42,43,4,44,45,46,47,1,48,4,49,50,4,51,52,53,3,54,55,56,57,58,59,47,4,1,1,60,1,1,3,16,16,61,62,3,3,63,64,65,66,67,68,69,70,71,72,73,74,75,76,77,78,79,80,81,82,83,84,85,86,87,88,89,90,91,92,93,94,95,96,97,98,99,100,101,102,103,104,105,106,107,108,109,110,111,112,113,114,115,116,117,118,119,120,121,122,123,124,125,126,127,128,129,130,131,132,133,134,135,136,137,138,139,140,141,142,143,144,145,146,147,148,149,150,151,152,153,154,155,156,157,158,159,160,161,162,163,164,165,166,167,168,169,170,171,172,173,174,175,176,177,178,179,180,181,182,183,184,185,186,187,188,189,190,191,192,193,194,195,196,197,198,199,200,201,1,1,1,1,1,1,1,1,1,1,1,1,1,1,1,1,1,1,1,1,1,1,1,1,3,3,3,3,3,3,3,3,3,3,3,3,4,4,4,4,4,4,4,4,4,4,4,4,4,4,16,16,16,16,16,16,47,47,65,66,67,68,69,70,71,72,73,74,75,76,77,78,79,80,81,82,83,84,85,86,87,88,89,90,91,92,93,94,95,96,97,98,99,100,101,102,103,104,105,106,107,108,109,110,111,112,113,114,115,116,117,118,119,120,121,122,123,124,125,126,127,128,129,130,131,132,133,134,135,136,137,138,139,140,141,142,143,144,145,146,147,148,149,150,151,152,153,154,155,156,157,158,159,160,161,162,163,164,165,166,167,168,169,170,171,172,173,174,175,176,177,178,179,180,181,182,183,184,185,186,187,188,189,190,191,192,193,194,195,196,197,198,199,200,201];

precedenceAdjList = [[],[],[262],[238,240],[],[],[],[],[],[],[],[],[],[],[],[],[],[282,284],[286],[288],[4],[264,266],[],[],[292],[],[],[],[],[],[],[],[],[],[],[254],[],[244],[],[276],[],[],[],[],[91],[],[],[],[],[],[260],[246],[250],[17],[],[],[21],[256],[],[252],[],[],[],[70,280],[],[],[],[],[],[],[278],[],[],[274],[],[],[],[272],[],[],[],[],[],[],[294],[],[37,242],[248],[],[42],[258],[],[290],[],[],[],[270],[268],[],[],[],[],[],[],[],[],[],[],[],[],[],[],[],[],[],[],[],[],[],[],[],[],[],[],[],[],[],[],[],[],[],[],[],[],[],[],[],[],[],[],[],[],[],[],[],[],[],[],[],[],[],[],[],[],[],[],[],[],[],[],[],[],[],[],[],[],[],[],[],[],[],[],[],[],[],[],[],[],[],[],[],[],[],[],[],[],[],[],[],[],[],[],[],[],[],[],[],[],[],[],[],[],[],[],[],[],[],[],[],[],[],[],[],[],[],[],[],[],[],[],[],[],[],[],[],[],[],[],[],[],[],[],[],[],[],[],[],[86],[237],[0],[239],[52],[241],[51],[243],[87],[245],[89],[247],[59],[249],[35],[251],[68],[253],[35],[255],[57],[257],[86],[259],[44],[261],[97],[263],[44],[265],[5],[267],[21],[269],[2],[271],[20],[273],[73],[275],[39],[277],[85],[279],[63],[281],[18],[283],[33],[285],[92],[287],[24],[289],[93],[291],[67],[293],[100],[101],[102],[103],[104],[105],[106],[107],[108],[109],[110],[111],[112],[113],[114],[115],[116],[117],[118],[119],[120],[121],[122],[123],[124],[125],[126],[127],[128],[129],[130],[131],[132],[133],[134],[135],[136],[137],[138],[139],[140],[141],[142],[143],[144],[145],[146],[147],[148],[149],[150],[151],[152],[153],[154],[155],[156],[157],[158],[159],[160],[161],[162],[163],[164],[165],[166],[167],[168],[169],[170],[171],[172],[173],[174],[175],[176],[177],[178],[179],[180],[181],[182],[183],[184],[185],[186],[187],[188],[189],[190],[191],[192],[193],[194],[195],[196],[197],[198],[199],[200],[201],[202],[203],[204],[205],[206],[207],[208],[209],[210],[211],[212],[213],[214],[215],[216],[217],[218],[219],[220],[221],[222],[223],[224],[225],[226],[227],[228],[229],[230],[231],[232],[233],[234],[235],[236]];